     30      1      7    490     11
     48
     29      9     13     13     10     23      5     22     27      0     20      4     21     19      2     17      9      2     17      9     10      9      6     28     21     26     14     13     12     29     20     12     19     22      1     29     13      2     20     29     12      9     21     15      0     24      7     18     16      4      8     15      5     17     13     14     27     25     20      3      5      8      7     22     15     16      1     27     11     15     16      9     29      2     23     27     25     18      6      3      6     24      2      1     26     18      9      4      7     29      7     13      1     29     26     24     15     14     18     23     11     22     23     26      7      0      2     18     25     16     14     20      4      5     23     28      1      0     18     22     23     28     29     15     16     27      3     14     29     18     20     23      5      8     13     18     23     27     11     26     12      2      0     15      1      5     25     20      9     16     29     25      1     22      6     21      4     23     25      0      5     12     23     15     21      0     11     14     17     21     24     26      9     18     21     18     23      3      8      6
     21     57     75     56     20     67     26      7     87     25     -3     49     86     87     56     24     64      0     67     80     38      6     54     87     33     12     43     64    -19     70     53    -11     14     82     82     44    -12     73      2     10
      2     11	    109     52      4      7      9      0      0      0     81      0     62      0     77      0      0      0      0      0      0      0     -2      0     67      0      0      0      0      0      0      0      0      0      0      0     38
      4     12	    287    142      5      5      1      0      0     16    -39      0      0      0      0    111      0      0      0      0     31      0      0      0      0      0      0      0      0      0      0      0      0      0      0      0      0
      3     12	    411    232      3      6      4      0     16      0      0    -55      0      0      0      0      0      0      0     50      0    314      0    283      0      0      0      0      0      0      0      0      0      0      0      0      0
      4     14	    350    234      4      7      2     81    -39      0      0      0      0      0      0      0      0      0    -34      0      0      0      0      0      0      0      0      0      0     12      0      0      0      0      0      0      0
      5     13	    401    205      6      6      5      0      0    -55      0      0      0      0      0      0      0    270      0      0      0      3      0      0    200      0      0      0      0    -20      0      0      0      0      0    179      0
      3     12	    475    198      3      4      9     62      0      0      0      0      0      0      0      0      0      0      0      0    121      0      0      0      0      0      0    -63     41    103      0      0      0      0      0      0      0
      3     15	    259    157      3      6      2      0      0      0      0      0      0      0     67      0      0      4      0      0      0      0    122    -38      0     -8      0      0      0      0      0      0      0      0      0      0    -23
      6     10	    119     69      6      6      2     77      0      0      0      0      0     67      0      0      0      0     23     69      0      0     29      0      0      0      0     -6     72      0     42      0      0      0     92     89      0
      4     13	    386    186      5      7     10      0    111      0      0      0      0      0      0      0      0      0     23      0      0      0      0      0      0     53      0      0      0      0      0     98    294      0      0      0     20
      3     11	    462    263      7      7      9      0      0      0      0      0      0      0      0      0      0      0     45      0      0      0      0      0    -36      0      0    293     12      0      0      0     21      0      0      0      0
      4     15	    432     51      7      7     10      0      0      0      0    270      0      4      0      0      0      0      0      0     38      0      0    204      0      0      0      0     17     33     71      0      0      0      0      0      0
      2     12	    195    108      5      5      2      0      0      0    -34      0      0      0     23     23     45      0      0     25    119      0      0    148      0      0      0      0      0      0     48      0      0      0    -30     21      0
      1     10	    454    154      1      1      1      0      0     50      0      0      0      0     69      0      0      0     25      0      0      0      0    -89      0      0      0      0      0     67    -32      0      0      0      0     83    -28
      1     13	    269    148      5      6     10      0     31      0      0      0    121      0      0      0      0     38    119      0      0      0     86      0      0      0      0      0      0      0      0      0      0     95      0      0      0
      3     13	    440    203      3      5      1      0      0    314      0      3      0      0      0      0      0      0      0      0      0      0      0      0    154      0    259      0      0      0      0      0      0      0      0      0      0
      3     15	    263     58      5      7      3     -2      0      0      0      0      0    122     29      0      0      0      0      0     86      0      0      0      0      0      0      0      0      0      0      0     36     36      0     34     23
      4     15	    500    231      6      7      6      0      0    283      0      0      0    -38      0      0      0    204    148    -89      0      0      0      0      0    156      0      0      0     73      0      0    289      0     49      0      0
      3     10	    268    174      3      6      6     67      0      0      0    200      0      0      0      0    -36      0      0      0      0    154      0      0      0      0      0      0      0      0      0      0      0      0      0      0      0
      4     15	    496    158      4      4      2      0      0      0      0      0      0     -8      0     53      0      0      0      0      0      0      0    156      0      0      0      0     69      0      0      0      0      0      0      0      0
      3     10	    413    279      3      5      4      0      0      0      0      0      0      0      0      0      0      0      0      0      0    259      0      0      0      0      0     93      0      0      0      0      0      0     81      0      0
      4     14	    415    273      6      6      1      0      0      0      0      0    -63      0     -6      0    293      0      0      0      0      0      0      0      0      0     93      0      0      0      0      0      0      0      0      0      0
      2     10	    100     63      5      5      4      0      0      0      0      0     41      0     72      0     12     17      0      0      0      0      0      0      0     69      0      0      0      0      0      0      0      0      0     58      0
      2     15	    182     59      2      7      6      0      0      0     12    -20    103      0      0      0      0     33      0     67      0      0      0     73      0      0      0      0      0      0      0     55     43      4      0      0     11
      1     13	    202    123      4      7      7      0      0      0      0      0      0      0     42      0      0     71     48    -32      0      0      0      0      0      0      0      0      0      0      0      0      0      0      0      0      0
      4     10	    467    146      4      7      4      0      0      0      0      0      0      0      0     98      0      0      0      0      0      0      0      0      0      0      0      0      0     55      0      0      0      0    122      0      0
      4     11	    395    270      6      7      4      0      0      0      0      0      0      0      0    294     21      0      0      0      0      0     36    289      0      0      0      0      0     43      0      0      0      0      0      0      0
      2     13	    308    216      6      6      2      0      0      0      0      0      0      0      0      0      0      0      0      0     95      0     36      0      0      0      0      0      0      4      0      0      0      0     69      0     23
      3     13	    156     75      3      6      7      0      0      0      0      0      0      0     92      0      0      0    -30      0      0      0      0     49      0      0     81      0      0      0      0    122      0     69      0      0      0
      2     15	    409    227      3      6     10      0      0      0      0    179      0      0     89      0      0      0     21     83      0      0     34      0      0      0      0      0     58      0      0      0      0      0      0      0    -26
      3     15	    139     52      4      6      4     38      0      0      0      0      0    -23      0     20      0      0      0    -28      0      0     23      0      0      0      0      0      0     11      0      0      0     23      0    -26      0